3640079
119,25,48,150,191,100,5,141,36,8,178,183,66,177,132,21,14,204,113,59,4,3,19,207,15,109,9,105,104,102,11,216,18,197,45,46,47,184,213,24,166,187,192,181,173,225,205,174,40,23,127,208,97,98,99,89,114,164,133,224,223,12,16,101,154,73,209,6,196,88,95,28,94,203,87,108,81,55,91,140,202,37,212,130,123,135,22,122,118,56,68,69,190,2,71,117,70,162,188,146,182,144,143,110,153,163,121,176,41,52,53,42,199,137,139,134,206,38,156,126,158,159,112,20,227,168,169,170,185,149,148,147,172,180,72,116,35,77,107,161,90,155,115,34,30,31,62,27,43,219,7,44,75,138,220,92,229,84,51,78,79,1,157,58,226,152,103,222,29,165,74,39,54,61,111,195,193,211,186,179,17,65,76,218,57,63,82,0,228,93,160,129,214,33,32,120,201,215,189,131,167,67,26,49,106,80,86,145,128,10,217,125,151,198,50,64,124,83,200,142,85,194,96,13,136,210,175,171,221,60
